nK = 1261;
nT = 6;
nI = 14;
L = 35;
TT = 262;
np = 1;
nc = 3;
b = [53, 69, 28, 30, 58, 35, 68, 50, 50, 33, 45, 35, 70, 52];
d = [117, 106, 128, 62, 134, 116, 112, 87, 140, 86, 110, 96, 144, 132];
m = [2.2, 1.8, 1.3, 2.2, 1.3, 1.5, 1.6, 2.2, 1.5, 1.5, 1.2, 1.6, 1.2, 1.2];
pt = [0.29, 0.2, 0.35, 0.31, 0.28, 0.31];
st = [16.53, 9.8, 14.7, 17.67, 14.28, 17.05];
arc = {<1, 0, 1, 1, 0, 0, 0, [1, 1, 1, 1, 1, 1]>, <2, 1, 2, 1, 0, 0, 0, [1, 1, 1, 1, 1, 1]>, <3, 2, 3, 1, 0, 0, 0, [1, 1, 1, 1, 1, 1]>, <4, 3, 4, 1, 0, 0, 0, [1, 1, 1, 1, 1, 1]>, <5, 4, 5, 1, 0, 0, 0, [1, 1, 1, 1, 1, 1]>, <6, 5, 6, 1, 0, 0, 0, [1, 1, 1, 1, 1, 1]>, <7, 6, 7, 1, 0, 0, 0, [1, 1, 1, 1, 1, 1]>, <8, 7, 8, 1, 0, 0, 0, [1, 1, 1, 1, 1, 1]>, <9, 8, 9, 1, 0, 0, 0, [1, 1, 1, 1, 1, 1]>, <10, 9, 10, 1, 0, 0, 0, [1, 1, 1, 1, 1, 1]>, <11, 10, 11, 1, 0, 0, 0, [1, 1, 1, 1, 1, 1]>, <12, 11, 12, 1, 0, 0, 0, [1, 1, 1, 1, 1, 1]>, <13, 12, 13, 1, 0, 0, 0, [1, 1, 1, 1, 1, 1]>, <14, 13, 14, 1, 0, 0, 0, [1, 1, 1, 1, 1, 1]>, <15, 14, 15, 1, 0, 0, 0, [1, 1, 1, 1, 1, 1]>, <16, 15, 16, 1, 0, 0, 0, [1, 1, 1, 1, 1, 1]>, <17, 16, 17, 1, 0, 0, 0, [1, 1, 1, 1, 1, 1]>, <18, 17, 18, 1, 0, 0, 0, [1, 1, 1, 1, 1, 1]>, <19, 18, 19, 1, 0, 0, 0, [1, 1, 1, 1, 1, 1]>, <20, 19, 20, 1, 0, 0, 0, [1, 1, 1, 1, 1, 1]>, <21, 20, 21, 1, 0, 0, 0, [1, 1, 1, 1, 1, 1]>, <22, 21, 22, 1, 0, 0, 0, [1, 1, 1, 1, 1, 1]>, <23, 22, 23, 1, 0, 0, 0, [1, 1, 1, 1, 1, 1]>, <24, 23, 24, 1, 0, 0, 0, [1, 1, 1, 1, 1, 1]>, <25, 24, 25, 1, 0, 0, 0, [1, 1, 1, 1, 1, 1]>, <26, 25, 26, 1, 0, 0, 0, [1, 1, 1, 1, 1, 1]>, <27, 26, 27, 1, 0, 0, 0, [1, 1, 1, 1, 1, 1]>, <28, 27, 28, 1, 0, 0, 0, [1, 1, 1, 1, 1, 1]>, <29, 28, 29, 1, 0, 0, 0, [1, 1, 1, 1, 1, 1]>, <30, 29, 30, 1, 0, 0, 0, [1, 1, 1, 1, 1, 1]>, <31, 30, 31, 1, 0, 0, 0, [1, 1, 1, 1, 1, 1]>, <32, 31, 32, 1, 0, 0, 0, [1, 1, 1, 1, 1, 1]>, <33, 32, 33, 1, 0, 0, 0, [1, 1, 1, 1, 1, 1]>, <34, 33, 34, 1, 0, 0, 0, [1, 1, 1, 1, 1, 1]>, <35, 34, 35, 1, 0, 0, 0, [1, 1, 1, 1, 1, 1]>, <36, 5, 14, 9, 1, 0, 0, [1, 0, 0, 1, 1, 1]>, <37, 6, 15, 9, 1, 0, 0, [1, 0, 0, 1, 1, 1]>, <38, 14, 23, 9, 1, 0, 0, [1, 0, 0, 1, 1, 1]>, <39, 15, 24, 9, 1, 0, 0, [1, 0, 0, 1, 1, 1]>, <40, 22, 31, 9, 1, 0, 0, [1, 0, 0, 1, 1, 1]>, <41, 23, 32, 9, 1, 0, 0, [1, 0, 0, 1, 1, 1]>, <42, 24, 33, 9, 1, 0, 0, [1, 0, 0, 1, 1, 1]>, <43, 5, 15, 10, 2, 0, 0, [1, 1, 0, 0, 1, 1]>, <44, 6, 16, 10, 2, 0, 0, [1, 1, 0, 0, 1, 1]>, <45, 14, 24, 10, 2, 0, 0, [1, 1, 0, 0, 1, 1]>, <46, 15, 25, 10, 2, 0, 0, [1, 1, 0, 0, 1, 1]>, <47, 21, 31, 10, 2, 0, 0, [1, 1, 0, 0, 1, 1]>, <48, 22, 32, 10, 2, 0, 0, [1, 1, 0, 0, 1, 1]>, <49, 23, 33, 10, 2, 0, 0, [1, 1, 0, 0, 1, 1]>, <50, 24, 34, 10, 2, 0, 0, [1, 1, 0, 0, 1, 1]>, <51, 3, 17, 14, 3, 1, 0, [0, 1, 1, 1, 1, 0]>, <52, 4, 18, 14, 3, 1, 0, [0, 1, 1, 1, 1, 0]>, <53, 5, 19, 14, 3, 1, 0, [0, 1, 1, 1, 1, 0]>, <54, 6, 20, 14, 3, 1, 0, [0, 1, 1, 1, 1, 0]>, <55, 12, 26, 14, 3, 1, 0, [0, 1, 1, 1, 1, 0]>, <56, 13, 27, 14, 3, 1, 0, [0, 1, 1, 1, 1, 0]>, <57, 14, 28, 14, 3, 1, 0, [0, 1, 1, 1, 1, 0]>, <58, 15, 29, 14, 3, 1, 0, [0, 1, 1, 1, 1, 0]>, <59, 17, 31, 14, 3, 1, 0, [0, 1, 1, 1, 1, 0]>, <60, 18, 32, 14, 3, 1, 0, [0, 1, 1, 1, 1, 0]>, <61, 19, 33, 14, 3, 1, 0, [0, 1, 1, 1, 1, 0]>, <62, 20, 34, 14, 3, 1, 0, [0, 1, 1, 1, 1, 0]>, <63, 21, 35, 14, 3, 1, 0, [0, 1, 1, 1, 1, 0]>, <64, 2, 17, 15, 4, 0, 0, [0, 1, 1, 1, 1, 0]>, <65, 3, 18, 15, 4, 0, 0, [0, 1, 1, 1, 1, 0]>, <66, 4, 19, 15, 4, 0, 0, [0, 1, 1, 1, 1, 0]>, <67, 5, 20, 15, 4, 0, 0, [0, 1, 1, 1, 1, 0]>, <68, 6, 21, 15, 4, 0, 0, [0, 1, 1, 1, 1, 0]>, <69, 11, 26, 15, 4, 0, 0, [0, 1, 1, 1, 1, 0]>, <70, 12, 27, 15, 4, 0, 0, [0, 1, 1, 1, 1, 0]>, <71, 13, 28, 15, 4, 0, 0, [0, 1, 1, 1, 1, 0]>, <72, 14, 29, 15, 4, 0, 0, [0, 1, 1, 1, 1, 0]>, <73, 15, 30, 15, 4, 0, 0, [0, 1, 1, 1, 1, 0]>, <74, 16, 31, 15, 4, 0, 0, [0, 1, 1, 1, 1, 0]>, <75, 17, 32, 15, 4, 0, 0, [0, 1, 1, 1, 1, 0]>, <76, 18, 33, 15, 4, 0, 0, [0, 1, 1, 1, 1, 0]>, <77, 19, 34, 15, 4, 0, 0, [0, 1, 1, 1, 1, 0]>, <78, 20, 35, 15, 4, 0, 0, [0, 1, 1, 1, 1, 0]>, <79, 4, 17, 13, 5, 0, 0, [1, 0, 0, 1, 1, 1]>, <80, 5, 18, 13, 5, 0, 0, [1, 0, 0, 1, 1, 1]>, <81, 6, 19, 13, 5, 0, 0, [1, 0, 0, 1, 1, 1]>, <82, 13, 26, 13, 5, 0, 0, [1, 0, 0, 1, 1, 1]>, <83, 14, 27, 13, 5, 0, 0, [1, 0, 0, 1, 1, 1]>, <84, 15, 28, 13, 5, 0, 0, [1, 0, 0, 1, 1, 1]>, <85, 18, 31, 13, 5, 0, 0, [1, 0, 0, 1, 1, 1]>, <86, 19, 32, 13, 5, 0, 0, [1, 0, 0, 1, 1, 1]>, <87, 20, 33, 13, 5, 0, 0, [1, 0, 0, 1, 1, 1]>, <88, 21, 34, 13, 5, 0, 0, [1, 0, 0, 1, 1, 1]>, <89, 22, 35, 13, 5, 0, 0, [1, 0, 0, 1, 1, 1]>, <90, 5, 14, 9, 6, 0, 1, [1, 1, 1, 1, 0, 0]>, <91, 6, 15, 9, 6, 0, 1, [1, 1, 1, 1, 0, 0]>, <92, 14, 23, 9, 6, 0, 1, [1, 1, 1, 1, 0, 0]>, <93, 15, 24, 9, 6, 0, 1, [1, 1, 1, 1, 0, 0]>, <94, 22, 31, 9, 6, 0, 1, [1, 1, 1, 1, 0, 0]>, <95, 23, 32, 9, 6, 0, 1, [1, 1, 1, 1, 0, 0]>, <96, 24, 33, 9, 6, 0, 1, [1, 1, 1, 1, 0, 0]>, <97, 5, 17, 12, 7, 0, 0, [1, 0, 0, 1, 1, 1]>, <98, 6, 18, 12, 7, 0, 0, [1, 0, 0, 1, 1, 1]>, <99, 14, 26, 12, 7, 0, 0, [1, 0, 0, 1, 1, 1]>, <100, 15, 27, 12, 7, 0, 0, [1, 0, 0, 1, 1, 1]>, <101, 19, 31, 12, 7, 0, 0, [1, 0, 0, 1, 1, 1]>, <102, 20, 32, 12, 7, 0, 0, [1, 0, 0, 1, 1, 1]>, <103, 21, 33, 12, 7, 0, 0, [1, 0, 0, 1, 1, 1]>, <104, 22, 34, 12, 7, 0, 0, [1, 0, 0, 1, 1, 1]>, <105, 23, 35, 12, 7, 0, 0, [1, 0, 0, 1, 1, 1]>, <106, 5, 14, 9, 8, 1, 0, [0, 1, 1, 1, 1, 0]>, <107, 6, 15, 9, 8, 1, 0, [0, 1, 1, 1, 1, 0]>, <108, 14, 23, 9, 8, 1, 0, [0, 1, 1, 1, 1, 0]>, <109, 15, 24, 9, 8, 1, 0, [0, 1, 1, 1, 1, 0]>, <110, 22, 31, 9, 8, 1, 0, [0, 1, 1, 1, 1, 0]>, <111, 23, 32, 9, 8, 1, 0, [0, 1, 1, 1, 1, 0]>, <112, 24, 33, 9, 8, 1, 0, [0, 1, 1, 1, 1, 0]>, <113, 5, 15, 10, 9, 0, 0, [1, 0, 0, 1, 1, 1]>, <114, 6, 16, 10, 9, 0, 0, [1, 0, 0, 1, 1, 1]>, <115, 14, 24, 10, 9, 0, 0, [1, 0, 0, 1, 1, 1]>, <116, 15, 25, 10, 9, 0, 0, [1, 0, 0, 1, 1, 1]>, <117, 21, 31, 10, 9, 0, 0, [1, 0, 0, 1, 1, 1]>, <118, 22, 32, 10, 9, 0, 0, [1, 0, 0, 1, 1, 1]>, <119, 23, 33, 10, 9, 0, 0, [1, 0, 0, 1, 1, 1]>, <120, 24, 34, 10, 9, 0, 0, [1, 0, 0, 1, 1, 1]>, <121, 5, 17, 12, 10, 0, 1, [1, 0, 0, 1, 1, 1]>, <122, 6, 18, 12, 10, 0, 1, [1, 0, 0, 1, 1, 1]>, <123, 14, 26, 12, 10, 0, 1, [1, 0, 0, 1, 1, 1]>, <124, 15, 27, 12, 10, 0, 1, [1, 0, 0, 1, 1, 1]>, <125, 19, 31, 12, 10, 0, 1, [1, 0, 0, 1, 1, 1]>, <126, 20, 32, 12, 10, 0, 1, [1, 0, 0, 1, 1, 1]>, <127, 21, 33, 12, 10, 0, 1, [1, 0, 0, 1, 1, 1]>, <128, 22, 34, 12, 10, 0, 1, [1, 0, 0, 1, 1, 1]>, <129, 23, 35, 12, 10, 0, 1, [1, 0, 0, 1, 1, 1]>, <130, 4, 17, 13, 11, 0, 0, [1, 1, 1, 0, 0, 1]>, <131, 5, 18, 13, 11, 0, 0, [1, 1, 1, 0, 0, 1]>, <132, 6, 19, 13, 11, 0, 0, [1, 1, 1, 0, 0, 1]>, <133, 13, 26, 13, 11, 0, 0, [1, 1, 1, 0, 0, 1]>, <134, 14, 27, 13, 11, 0, 0, [1, 1, 1, 0, 0, 1]>, <135, 15, 28, 13, 11, 0, 0, [1, 1, 1, 0, 0, 1]>, <136, 18, 31, 13, 11, 0, 0, [1, 1, 1, 0, 0, 1]>, <137, 19, 32, 13, 11, 0, 0, [1, 1, 1, 0, 0, 1]>, <138, 20, 33, 13, 11, 0, 0, [1, 1, 1, 0, 0, 1]>, <139, 21, 34, 13, 11, 0, 0, [1, 1, 1, 0, 0, 1]>, <140, 22, 35, 13, 11, 0, 0, [1, 1, 1, 0, 0, 1]>, <141, 5, 15, 10, 12, 0, 1, [1, 0, 0, 1, 1, 1]>, <142, 6, 16, 10, 12, 0, 1, [1, 0, 0, 1, 1, 1]>, <143, 14, 24, 10, 12, 0, 1, [1, 0, 0, 1, 1, 1]>, <144, 15, 25, 10, 12, 0, 1, [1, 0, 0, 1, 1, 1]>, <145, 21, 31, 10, 12, 0, 1, [1, 0, 0, 1, 1, 1]>, <146, 22, 32, 10, 12, 0, 1, [1, 0, 0, 1, 1, 1]>, <147, 23, 33, 10, 12, 0, 1, [1, 0, 0, 1, 1, 1]>, <148, 24, 34, 10, 12, 0, 1, [1, 0, 0, 1, 1, 1]>, <149, 4, 17, 13, 13, 0, 1, [0, 1, 1, 1, 1, 0]>, <150, 5, 18, 13, 13, 0, 1, [0, 1, 1, 1, 1, 0]>, <151, 6, 19, 13, 13, 0, 1, [0, 1, 1, 1, 1, 0]>, <152, 13, 26, 13, 13, 0, 1, [0, 1, 1, 1, 1, 0]>, <153, 14, 27, 13, 13, 0, 1, [0, 1, 1, 1, 1, 0]>, <154, 15, 28, 13, 13, 0, 1, [0, 1, 1, 1, 1, 0]>, <155, 18, 31, 13, 13, 0, 1, [0, 1, 1, 1, 1, 0]>, <156, 19, 32, 13, 13, 0, 1, [0, 1, 1, 1, 1, 0]>, <157, 20, 33, 13, 13, 0, 1, [0, 1, 1, 1, 1, 0]>, <158, 21, 34, 13, 13, 0, 1, [0, 1, 1, 1, 1, 0]>, <159, 22, 35, 13, 13, 0, 1, [0, 1, 1, 1, 1, 0]>, <160, 5, 14, 9, 14, 0, 0, [0, 0, 1, 1, 1, 1]>, <161, 6, 15, 9, 14, 0, 0, [0, 0, 1, 1, 1, 1]>, <162, 14, 23, 9, 14, 0, 0, [0, 0, 1, 1, 1, 1]>, <163, 15, 24, 9, 14, 0, 0, [0, 0, 1, 1, 1, 1]>, <164, 22, 31, 9, 14, 0, 0, [0, 0, 1, 1, 1, 1]>, <165, 23, 32, 9, 14, 0, 0, [0, 0, 1, 1, 1, 1]>, <166, 24, 33, 9, 14, 0, 0, [0, 0, 1, 1, 1, 1]>};
